proyfinal/src/viki/013/experimentInOfficeAgust.take6.output/f4d9fab8-55d3-424c-a93e-04099b2db12c.als.out
Reading from standard input... Use '--help' for help.
============================[ Problem Statistics ]=============================
|                                                                             |
|  Number of variables:         87638                                         |
|  Number of clauses:          161767                                         |
|  Parse time:                   0.03 s                                       |
|                                                                             |
============================[ Search Statistics ]==============================
| Conflicts |          ORIGINAL         |          LEARNT          | Progress |
|           |    Vars  Clauses Literals |    Limit  Clauses Lit/Cl |          |
===============================================================================
|       100 |   63728   110143   274990 |    40385      100     22 | 27.283 % |
|       250 |   56630   110143   274990 |    44424      249     43 | 35.382 % |
|       475 |   56630    88557   222009 |    48866      473     36 | 35.382 % |
|       812 |   56515    88131   220975 |    53753      805     30 | 35.513 % |
|      1318 |   56515    88131   220975 |    59128     1311     82 | 35.513 % |
|      2077 |   56489    88023   220728 |    65041     2067     75 | 35.543 % |
|      3216 |   56468    87927   220501 |    71545     3205     76 | 35.567 % |
|      4924 |   56428    87752   220084 |    78700     4798     67 | 35.612 % |
|      7486 |   56409    87672   219894 |    86570     7354     67 | 35.634 % |
|     11330 |   56286    87141   218655 |    95227    11165     73 | 35.774 % |
===============================================================================
restarts              : 63
conflicts             : 16324          (6701 /sec)
decisions             : 70271          (0.00 % random) (28847 /sec)
propagations          : 25923330       (10641862 /sec)
conflict literals     : 1235864        (40.20 % deleted)
Memory used           : 31.22 MB
CPU time              : 2.43598 s

INDETERMINATE
